gen	cost
1	1397
2	1368
3	1356
4	1347
5	1335
6	1328
7	1316
8	1308
9	1307
10	1290
11	1282
12	1276
13	1265
14	1261
15	1257
16	1253
17	1252
18	1242
19	1230
20	1222
21	1218
22	1205
23	1202
24	1197
25	1192
26	1184
27	1173
28	1173
29	1171
30	1167
31	1159
32	1150
33	1143
34	1142
35	1139
36	1133
37	1133
38	1128
39	1119
40	1110
41	1106
42	1100
43	1092
44	1088
45	1084
46	1083
47	1081
48	1078
49	1075
50	1071

